p cnf 286 416
51 52 1 79 0
51 52 1 -79 0
-51 -52 1 80 0
-51 -52 1 -80 0
51 -52 -1 81 0
51 -52 -1 -81 0
-51 52 -1 82 0
-51 52 -1 -82 0
1 53 2 83 0
1 53 2 -83 0
-1 -53 2 84 0
-1 -53 2 -84 0
1 -53 -2 85 0
1 -53 -2 -85 0
-1 53 -2 86 0
-1 53 -2 -86 0
2 54 3 87 0
2 54 3 -87 0
-2 -54 3 88 0
-2 -54 3 -88 0
2 -54 -3 89 0
2 -54 -3 -89 0
-2 54 -3 90 0
-2 54 -3 -90 0
3 55 4 91 0
3 55 4 -91 0
-3 -55 4 92 0
-3 -55 4 -92 0
3 -55 -4 93 0
3 -55 -4 -93 0
-3 55 -4 94 0
-3 55 -4 -94 0
4 56 5 95 0
4 56 5 -95 0
-4 -56 5 96 0
-4 -56 5 -96 0
4 -56 -5 97 0
4 -56 -5 -97 0
-4 56 -5 98 0
-4 56 -5 -98 0
5 57 6 99 0
5 57 6 -99 0
-5 -57 6 100 0
-5 -57 6 -100 0
5 -57 -6 101 0
5 -57 -6 -101 0
-5 57 -6 102 0
-5 57 -6 -102 0
6 58 7 103 0
6 58 7 -103 0
-6 -58 7 104 0
-6 -58 7 -104 0
6 -58 -7 105 0
6 -58 -7 -105 0
-6 58 -7 106 0
-6 58 -7 -106 0
7 59 8 107 0
7 59 8 -107 0
-7 -59 8 108 0
-7 -59 8 -108 0
7 -59 -8 109 0
7 -59 -8 -109 0
-7 59 -8 110 0
-7 59 -8 -110 0
8 60 9 111 0
8 60 9 -111 0
-8 -60 9 112 0
-8 -60 9 -112 0
8 -60 -9 113 0
8 -60 -9 -113 0
-8 60 -9 114 0
-8 60 -9 -114 0
9 61 10 115 0
9 61 10 -115 0
-9 -61 10 116 0
-9 -61 10 -116 0
9 -61 -10 117 0
9 -61 -10 -117 0
-9 61 -10 118 0
-9 61 -10 -118 0
10 62 11 119 0
10 62 11 -119 0
-10 -62 11 120 0
-10 -62 11 -120 0
10 -62 -11 121 0
10 -62 -11 -121 0
-10 62 -11 122 0
-10 62 -11 -122 0
11 63 12 123 0
11 63 12 -123 0
-11 -63 12 124 0
-11 -63 12 -124 0
11 -63 -12 125 0
11 -63 -12 -125 0
-11 63 -12 126 0
-11 63 -12 -126 0
12 64 13 127 0
12 64 13 -127 0
-12 -64 13 128 0
-12 -64 13 -128 0
12 -64 -13 129 0
12 -64 -13 -129 0
-12 64 -13 130 0
-12 64 -13 -130 0
13 65 14 131 0
13 65 14 -131 0
-13 -65 14 132 0
-13 -65 14 -132 0
13 -65 -14 133 0
13 -65 -14 -133 0
-13 65 -14 134 0
-13 65 -14 -134 0
14 66 15 135 0
14 66 15 -135 0
-14 -66 15 136 0
-14 -66 15 -136 0
14 -66 -15 137 0
14 -66 -15 -137 0
-14 66 -15 138 0
-14 66 -15 -138 0
15 67 16 139 0
15 67 16 -139 0
-15 -67 16 140 0
-15 -67 16 -140 0
15 -67 -16 141 0
15 -67 -16 -141 0
-15 67 -16 142 0
-15 67 -16 -142 0
16 68 17 143 0
16 68 17 -143 0
-16 -68 17 144 0
-16 -68 17 -144 0
16 -68 -17 145 0
16 -68 -17 -145 0
-16 68 -17 146 0
-16 68 -17 -146 0
17 69 18 147 0
17 69 18 -147 0
-17 -69 18 148 0
-17 -69 18 -148 0
17 -69 -18 149 0
17 -69 -18 -149 0
-17 69 -18 150 0
-17 69 -18 -150 0
18 70 19 151 0
18 70 19 -151 0
-18 -70 19 152 0
-18 -70 19 -152 0
18 -70 -19 153 0
18 -70 -19 -153 0
-18 70 -19 154 0
-18 70 -19 -154 0
19 71 20 155 0
19 71 20 -155 0
-19 -71 20 156 0
-19 -71 20 -156 0
19 -71 -20 157 0
19 -71 -20 -157 0
-19 71 -20 158 0
-19 71 -20 -158 0
20 72 21 159 0
20 72 21 -159 0
-20 -72 21 160 0
-20 -72 21 -160 0
20 -72 -21 161 0
20 -72 -21 -161 0
-20 72 -21 162 0
-20 72 -21 -162 0
21 73 22 163 0
21 73 22 -163 0
-21 -73 22 164 0
-21 -73 22 -164 0
21 -73 -22 165 0
21 -73 -22 -165 0
-21 73 -22 166 0
-21 73 -22 -166 0
22 74 23 167 0
22 74 23 -167 0
-22 -74 23 168 0
-22 -74 23 -168 0
22 -74 -23 169 0
22 -74 -23 -169 0
-22 74 -23 170 0
-22 74 -23 -170 0
23 75 24 171 0
23 75 24 -171 0
-23 -75 24 172 0
-23 -75 24 -172 0
23 -75 -24 173 0
23 -75 -24 -173 0
-23 75 -24 174 0
-23 75 -24 -174 0
24 76 25 175 0
24 76 25 -175 0
-24 -76 25 176 0
-24 -76 25 -176 0
24 -76 -25 177 0
24 -76 -25 -177 0
-24 76 -25 178 0
-24 76 -25 -178 0
25 77 78 179 0
25 77 78 -179 0
-25 -77 78 180 0
-25 -77 78 -180 0
25 -77 -78 181 0
25 -77 -78 -181 0
-25 77 -78 182 0
-25 77 -78 -182 0
26 77 78 183 0
26 77 78 -183 0
-26 -77 78 184 0
-26 -77 78 -184 0
26 -77 -78 185 0
26 -77 -78 -185 0
-26 77 -78 186 0
-26 77 -78 -186 0
27 76 26 187 0
27 76 26 -187 0
-27 -76 26 188 0
-27 -76 26 -188 0
27 -76 -26 189 0
27 -76 -26 -189 0
-27 76 -26 190 0
-27 76 -26 -190 0
28 75 27 191 0
28 75 27 -191 0
-28 -75 27 192 0
-28 -75 27 -192 0
28 -75 -27 193 0
28 -75 -27 -193 0
-28 75 -27 194 0
-28 75 -27 -194 0
29 74 28 195 0
29 74 28 -195 0
-29 -74 28 196 0
-29 -74 28 -196 0
29 -74 -28 197 0
29 -74 -28 -197 0
-29 74 -28 198 0
-29 74 -28 -198 0
30 73 29 199 0
30 73 29 -199 0
-30 -73 29 200 0
-30 -73 29 -200 0
30 -73 -29 201 0
30 -73 -29 -201 0
-30 73 -29 202 0
-30 73 -29 -202 0
31 72 30 203 0
31 72 30 -203 0
-31 -72 30 204 0
-31 -72 30 -204 0
31 -72 -30 205 0
31 -72 -30 -205 0
-31 72 -30 206 0
-31 72 -30 -206 0
32 71 31 207 0
32 71 31 -207 0
-32 -71 31 208 0
-32 -71 31 -208 0
32 -71 -31 209 0
32 -71 -31 -209 0
-32 71 -31 210 0
-32 71 -31 -210 0
33 70 32 211 0
33 70 32 -211 0
-33 -70 32 212 0
-33 -70 32 -212 0
33 -70 -32 213 0
33 -70 -32 -213 0
-33 70 -32 214 0
-33 70 -32 -214 0
34 69 33 215 0
34 69 33 -215 0
-34 -69 33 216 0
-34 -69 33 -216 0
34 -69 -33 217 0
34 -69 -33 -217 0
-34 69 -33 218 0
-34 69 -33 -218 0
35 68 34 219 0
35 68 34 -219 0
-35 -68 34 220 0
-35 -68 34 -220 0
35 -68 -34 221 0
35 -68 -34 -221 0
-35 68 -34 222 0
-35 68 -34 -222 0
36 67 35 223 0
36 67 35 -223 0
-36 -67 35 224 0
-36 -67 35 -224 0
36 -67 -35 225 0
36 -67 -35 -225 0
-36 67 -35 226 0
-36 67 -35 -226 0
37 66 36 227 0
37 66 36 -227 0
-37 -66 36 228 0
-37 -66 36 -228 0
37 -66 -36 229 0
37 -66 -36 -229 0
-37 66 -36 230 0
-37 66 -36 -230 0
38 65 37 231 0
38 65 37 -231 0
-38 -65 37 232 0
-38 -65 37 -232 0
38 -65 -37 233 0
38 -65 -37 -233 0
-38 65 -37 234 0
-38 65 -37 -234 0
39 64 38 235 0
39 64 38 -235 0
-39 -64 38 236 0
-39 -64 38 -236 0
39 -64 -38 237 0
39 -64 -38 -237 0
-39 64 -38 238 0
-39 64 -38 -238 0
40 63 39 239 0
40 63 39 -239 0
-40 -63 39 240 0
-40 -63 39 -240 0
40 -63 -39 241 0
40 -63 -39 -241 0
-40 63 -39 242 0
-40 63 -39 -242 0
41 62 40 243 0
41 62 40 -243 0
-41 -62 40 244 0
-41 -62 40 -244 0
41 -62 -40 245 0
41 -62 -40 -245 0
-41 62 -40 246 0
-41 62 -40 -246 0
42 61 41 247 0
42 61 41 -247 0
-42 -61 41 248 0
-42 -61 41 -248 0
42 -61 -41 249 0
42 -61 -41 -249 0
-42 61 -41 250 0
-42 61 -41 -250 0
43 60 42 251 0
43 60 42 -251 0
-43 -60 42 252 0
-43 -60 42 -252 0
43 -60 -42 253 0
43 -60 -42 -253 0
-43 60 -42 254 0
-43 60 -42 -254 0
44 59 43 255 0
44 59 43 -255 0
-44 -59 43 256 0
-44 -59 43 -256 0
44 -59 -43 257 0
44 -59 -43 -257 0
-44 59 -43 258 0
-44 59 -43 -258 0
45 58 44 259 0
45 58 44 -259 0
-45 -58 44 260 0
-45 -58 44 -260 0
45 -58 -44 261 0
45 -58 -44 -261 0
-45 58 -44 262 0
-45 58 -44 -262 0
46 57 45 263 0
46 57 45 -263 0
-46 -57 45 264 0
-46 -57 45 -264 0
46 -57 -45 265 0
46 -57 -45 -265 0
-46 57 -45 266 0
-46 57 -45 -266 0
47 56 46 267 0
47 56 46 -267 0
-47 -56 46 268 0
-47 -56 46 -268 0
47 -56 -46 269 0
47 -56 -46 -269 0
-47 56 -46 270 0
-47 56 -46 -270 0
48 55 47 271 0
48 55 47 -271 0
-48 -55 47 272 0
-48 -55 47 -272 0
48 -55 -47 273 0
48 -55 -47 -273 0
-48 55 -47 274 0
-48 55 -47 -274 0
49 54 48 275 0
49 54 48 -275 0
-49 -54 48 276 0
-49 -54 48 -276 0
49 -54 -48 277 0
49 -54 -48 -277 0
-49 54 -48 278 0
-49 54 -48 -278 0
50 53 49 279 0
50 53 49 -279 0
-50 -53 49 280 0
-50 -53 49 -280 0
50 -53 -49 281 0
50 -53 -49 -281 0
-50 53 -49 282 0
-50 53 -49 -282 0
51 52 -50 283 0
51 52 -50 -283 0
-51 -52 -50 284 0
-51 -52 -50 -284 0
51 -52 50 285 0
51 -52 50 -285 0
-51 52 50 286 0
-51 52 50 -286 0
